unsat
(:SPACER-inductive-gen                8
 :SPACER-inductive-gen-weaken-fail    9
 :SPACER-inductive-level              1
 :SPACER-max-depth                    3
 :SPACER-max-query-lvl                3
 :SPACER-num-active-lemmas            6
 :SPACER-num-invariants               5
 :SPACER-num-is_invariant             14
 :SPACER-num-lemmas                   12
 :SPACER-num-pobs                     6
 :SPACER-num-propagations             6
 :SPACER-num-queries                  8
 :added-eqs                           838
 :arith-assert-diseq                  210
 :arith-assert-lower                  996
 :arith-assert-upper                  720
 :arith-bound-prop                    64
 :arith-conflicts                     34
 :arith-eq-adapter                    146
 :arith-fixed-eqs                     152
 :arith-gcd-tests                     8
 :arith-num-rows                      56
 :arith-offset-eqs                    26
 :arith-patches                       2
 :arith-patches_succ                  2
 :arith-pivots                        244
 :arith-row-summations                1226
 :arith-tableau-max-columns           102
 :arith-tableau-max-rows              56
 :conflicts                           134
 :decisions                           784
 :del-clause                          242
 :final-checks                        40
 :iuc_solver.num_proxies              24
 :max-memory                          30.98
 :memory                              30.50
 :minimized-lits                      6
 :mk-bool-var                         788
 :mk-clause                           656
 :num-allocs                          7798043
 :num-checks                          116
 :pool_solver.checks                  58
 :pool_solver.checks.sat              14
 :pool_solver.checks.undef            6
 :propagations                        3386
 :rlimit-count                        34795
 :time                                0.05
 :time.iuc_solver.get_iuc             0.00
 :time.iuc_solver.get_iuc.hyp_reduce2 0.00
 :time.iuc_solver.get_iuc.learn_core  0.00
 :time.pool_solver.smt.total          0.01
 :time.pool_solver.smt.total.sat      0.00
 :time.pool_solver.smt.total.undef    0.00
 :time.spacer.init_rules              0.00
 :time.spacer.mbp                     0.00
 :time.spacer.solve                   0.03
 :time.spacer.solve.propagate         0.01
 :time.spacer.solve.reach             0.03
 :time.spacer.solve.reach.children    0.00
 :time.spacer.solve.reach.cluster     0.00
 :time.spacer.solve.reach.gen.global  0.00
 :time.spacer.solve.reach.gen.ind     0.00)
(:max-memory   30.98
 :memory       30.50
 :num-allocs   7798043
 :rlimit-count 34795
 :time         0.05
 :total-time   0.07)
